\* OptArt2 *\
Maximize
Earnings: 8 chairs + 11 tables
Subject To
Stock_of_large_bricks: chairs + 2 tables <= 19
Stock_of_small_bricks: 2 chairs + 2 tables <= 25
Bounds
 0 <= chairs
 0 <= tables
Generals
chairs
tables
End
